robust/generate/spp_dkp_Lefebvre_et_al_2026/src/shortest_path_5_10.kp
52
89

[4.58 0.15 1.17 3.44 0.55 3.45 0.3 5.34 5.45 2.9 3.54 4.25 4.26 2.32 4.28 2.35]

[25 39 77 60 15 85 72 89 69 23 51 18 42 11 37 9]
