robust/generate/spp_dkp_Lefebvre_et_al_2026/src/shortest_path_5_10.lp
\ Model sp_5_10
\ LP format - for model browsing. Use MPS format to capture full model detail.
\ Signature: 0x6daf66c4acd85796
Minimize
  49.09 y[0,2] + 18.11 y[0,3] + 22.02 y[0,4] + 35.85 y[1,2] + 72.95 y[1,3]
   + 49.09 y[2,0] + 35.85 y[2,1] + 43.93 y[2,3] + 51.62 y[2,4]
   + 18.11 y[3,0] + 72.95 y[3,1] + 43.93 y[3,2] + 38.48 y[3,4]
   + 22.02 y[4,0] + 51.62 y[4,2] + 38.48 y[4,3] + 4.909 r[0,2]
   + 1.811 r[0,3] + 2.202 r[0,4] + 3.585 r[1,2] + 7.295 r[1,3]
   + 4.909 r[2,0] + 3.585 r[2,1] + 4.393 r[2,3] + 5.162 r[2,4]
   + 1.811 r[3,0] + 7.295 r[3,1] + 4.393 r[3,2] + 3.848 r[3,4]
   + 2.202 r[4,0] + 5.162 r[4,2] + 3.848 r[4,3]
Subject To
 flow_cons_inner_nodes[0]: - y[0,2] - y[0,3] - y[0,4] + y[2,0] + y[3,0]
   + y[4,0] = 0
 flow_cons_inner_nodes[2]: y[0,2] + y[1,2] - y[2,0] - y[2,1] - y[2,3]
   - y[2,4] + y[3,2] + y[4,2] = 0
 flow_cons_inner_nodes[3]: y[0,3] + y[1,3] + y[2,3] - y[3,0] - y[3,1]
   - y[3,2] - y[3,4] + y[4,3] = 0
 flow_cons_source: y[1,2] + y[1,3] - y[2,1] - y[3,1] = 1
 flow_cons_target: y[0,4] + y[2,4] + y[3,4] - y[4,0] - y[4,2] - y[4,3] = 1
 primal_lower: - 4.58 y[0,2] - 0.15 y[0,3] - 1.17 y[0,4] - 3.44 y[1,2]
   - 0.55 y[1,3] - 3.45 y[2,0] - 0.3 y[2,1] - 5.34 y[2,3] - 5.45 y[2,4]
   - 2.9 y[3,0] - 3.54 y[3,1] - 4.25 y[3,2] - 4.26 y[3,4] - 2.32 y[4,0]
   - 4.28 y[4,2] - 2.35 y[4,3] + 25 u[0,2] + 39 u[0,3] + 77 u[0,4]
   + 60 u[1,2] + 15 u[1,3] + 85 u[2,0] + 72 u[2,1] + 89 u[2,3] + 69 u[2,4]
   + 23 u[3,0] + 51 u[3,1] + 18 u[3,2] + 42 u[3,4] + 11 u[4,0] + 37 u[4,2]
   + 9 u[4,3] <= 89
 mccormick1[0,2]: - u[0,2] + r[0,2] <= 0
 mccormick1[0,3]: - u[0,3] + r[0,3] <= 0
 mccormick1[0,4]: - u[0,4] + r[0,4] <= 0
 mccormick1[1,2]: - u[1,2] + r[1,2] <= 0
 mccormick1[1,3]: - u[1,3] + r[1,3] <= 0
 mccormick1[2,0]: - u[2,0] + r[2,0] <= 0
 mccormick1[2,1]: - u[2,1] + r[2,1] <= 0
 mccormick1[2,3]: - u[2,3] + r[2,3] <= 0
 mccormick1[2,4]: - u[2,4] + r[2,4] <= 0
 mccormick1[3,0]: - u[3,0] + r[3,0] <= 0
 mccormick1[3,1]: - u[3,1] + r[3,1] <= 0
 mccormick1[3,2]: - u[3,2] + r[3,2] <= 0
 mccormick1[3,4]: - u[3,4] + r[3,4] <= 0
 mccormick1[4,0]: - u[4,0] + r[4,0] <= 0
 mccormick1[4,2]: - u[4,2] + r[4,2] <= 0
 mccormick1[4,3]: - u[4,3] + r[4,3] <= 0
 mccormick2[0,2]: - y[0,2] + r[0,2] <= 0
 mccormick2[0,3]: - y[0,3] + r[0,3] <= 0
 mccormick2[0,4]: - y[0,4] + r[0,4] <= 0
 mccormick2[1,2]: - y[1,2] + r[1,2] <= 0
 mccormick2[1,3]: - y[1,3] + r[1,3] <= 0
 mccormick2[2,0]: - y[2,0] + r[2,0] <= 0
 mccormick2[2,1]: - y[2,1] + r[2,1] <= 0
 mccormick2[2,3]: - y[2,3] + r[2,3] <= 0
 mccormick2[2,4]: - y[2,4] + r[2,4] <= 0
 mccormick2[3,0]: - y[3,0] + r[3,0] <= 0
 mccormick2[3,1]: - y[3,1] + r[3,1] <= 0
 mccormick2[3,2]: - y[3,2] + r[3,2] <= 0
 mccormick2[3,4]: - y[3,4] + r[3,4] <= 0
 mccormick2[4,0]: - y[4,0] + r[4,0] <= 0
 mccormick2[4,2]: - y[4,2] + r[4,2] <= 0
 mccormick2[4,3]: - y[4,3] + r[4,3] <= 0
 mccormick3[0,2]: - y[0,2] - u[0,2] + r[0,2] >= -1
 mccormick3[0,3]: - y[0,3] - u[0,3] + r[0,3] >= -1
 mccormick3[0,4]: - y[0,4] - u[0,4] + r[0,4] >= -1
 mccormick3[1,2]: - y[1,2] - u[1,2] + r[1,2] >= -1
 mccormick3[1,3]: - y[1,3] - u[1,3] + r[1,3] >= -1
 mccormick3[2,0]: - y[2,0] - u[2,0] + r[2,0] >= -1
 mccormick3[2,1]: - y[2,1] - u[2,1] + r[2,1] >= -1
 mccormick3[2,3]: - y[2,3] - u[2,3] + r[2,3] >= -1
 mccormick3[2,4]: - y[2,4] - u[2,4] + r[2,4] >= -1
 mccormick3[3,0]: - y[3,0] - u[3,0] + r[3,0] >= -1
 mccormick3[3,1]: - y[3,1] - u[3,1] + r[3,1] >= -1
 mccormick3[3,2]: - y[3,2] - u[3,2] + r[3,2] >= -1
 mccormick3[3,4]: - y[3,4] - u[3,4] + r[3,4] >= -1
 mccormick3[4,0]: - y[4,0] - u[4,0] + r[4,0] >= -1
 mccormick3[4,2]: - y[4,2] - u[4,2] + r[4,2] >= -1
 mccormick3[4,3]: - y[4,3] - u[4,3] + r[4,3] >= -1
Bounds
Binaries
 y[0,2] y[0,3] y[0,4] y[1,2] y[1,3] y[2,0] y[2,1] y[2,3] y[2,4] y[3,0]
 y[3,1] y[3,2] y[3,4] y[4,0] y[4,2] y[4,3] u[0,2] u[0,3] u[0,4] u[1,2]
 u[1,3] u[2,0] u[2,1] u[2,3] u[2,4] u[3,0] u[3,1] u[3,2] u[3,4] u[4,0]
 u[4,2] u[4,3] r[0,2] r[0,3] r[0,4] r[1,2] r[1,3] r[2,0] r[2,1] r[2,3]
 r[2,4] r[3,0] r[3,1] r[3,2] r[3,4] r[4,0] r[4,2] r[4,3]
End
